52	0

0	1	2
5	1	3
1	1	4
2	2	5	6
1	1	7
1	1	7
4	2	8	9
6	1	11
3	1	10
6	1	11
9	1	12
1	2	13	14
9	1	17
2	1	15
2	1	16
2	2	17	19
3	2	18	21
4	2	20	22
7	2	20	21
7	1	23
8	1	22
6	1	23
1	2	24	26
6	2	25	28
3	1	27
8	2	27	28
4	2	29	30
5	2	29	30
10	2	32	33
4	1	31
6	2	32	33
8	1	35
2	1	34
5	2	35	37
7	2	36	38
10	1	39
10	1	38
10	1	39
7	1	40
1	2	41	42
9	1	43
7	2	43	44
8	1	45
10	1	45
10	1	46
7	1	47
7	2	48	49
6	1	51
1	1	50
2	1	51
9	1	52
0	0
